c "432315.clq"
p edge 141 548
e 1 5
e 1 6
e 1 8
e 1 18
e 1 19
e 1 53
e 1 64
e 1 108
e 2 5
e 2 6
e 2 10
e 2 19
e 2 36
e 2 86
e 2 131
e 3 5
e 3 6
e 3 7
e 3 8
e 3 9
e 3 10
e 3 11
e 3 13
e 3 15
e 3 16
e 3 18
e 3 20
e 3 21
e 3 24
e 3 25
e 3 26
e 3 29
e 3 30
e 3 37
e 3 63
e 3 64
e 3 69
e 3 71
e 3 74
e 3 78
e 3 80
e 3 84
e 3 87
e 3 89
e 3 107
e 3 111
e 3 117
e 3 120
e 3 121
e 3 133
e 3 134
e 4 5
e 4 7
e 4 8
e 4 9
e 4 12
e 4 14
e 4 16
e 4 17
e 4 21
e 4 22
e 4 25
e 4 28
e 4 38
e 4 42
e 4 46
e 4 58
e 4 60
e 4 68
e 4 76
e 4 81
e 4 93
e 4 102
e 4 105
e 4 124
e 4 137
e 5 6
e 5 7
e 5 9
e 5 12
e 5 13
e 5 15
e 5 17
e 5 23
e 5 27
e 5 31
e 5 33
e 5 41
e 5 70
e 5 88
e 5 94
e 5 104
e 5 114
e 5 122
e 6 7
e 6 9
e 6 10
e 6 11
e 6 12
e 6 22
e 6 30
e 6 39
e 6 52
e 6 56
e 6 66
e 6 80
e 6 93
e 6 95
e 6 125
e 6 140
e 7 8
e 7 11
e 7 14
e 7 18
e 7 19
e 7 20
e 7 23
e 7 24
e 7 26
e 7 27
e 7 29
e 7 32
e 7 34
e 7 37
e 7 38
e 7 40
e 7 44
e 7 45
e 7 46
e 7 55
e 7 72
e 7 85
e 7 87
e 7 88
e 7 91
e 7 92
e 7 102
e 7 110
e 7 113
e 7 114
e 7 131
e 7 135
e 8 11
e 8 13
e 8 15
e 8 16
e 8 22
e 8 23
e 8 25
e 8 29
e 8 31
e 8 41
e 8 48
e 8 49
e 8 61
e 8 67
e 8 71
e 8 74
e 8 75
e 8 82
e 8 86
e 8 92
e 8 100
e 8 115
e 8 117
e 8 123
e 8 125
e 9 10
e 9 14
e 9 17
e 9 35
e 9 37
e 9 39
e 9 42
e 9 43
e 9 53
e 9 54
e 9 56
e 9 58
e 9 70
e 9 79
e 9 121
e 9 127
e 10 13
e 10 46
e 10 90
e 11 12
e 11 14
e 11 15
e 11 21
e 11 28
e 11 31
e 11 33
e 11 34
e 11 43
e 11 46
e 11 54
e 11 55
e 11 60
e 11 68
e 11 69
e 11 70
e 11 93
e 11 101
e 11 109
e 11 124
e 11 135
e 11 138
e 12 49
e 13 16
e 13 18
e 13 19
e 13 20
e 13 21
e 13 23
e 13 24
e 13 28
e 13 29
e 13 30
e 13 32
e 13 33
e 13 42
e 13 52
e 13 58
e 13 59
e 13 61
e 13 71
e 13 72
e 13 73
e 13 74
e 13 79
e 13 81
e 13 84
e 13 94
e 13 99
e 13 102
e 13 103
e 13 108
e 13 110
e 13 122
e 13 131
e 14 17
e 14 20
e 14 24
e 14 26
e 14 34
e 14 35
e 14 36
e 14 37
e 14 40
e 14 47
e 14 48
e 14 51
e 14 72
e 14 77
e 14 92
e 14 115
e 14 119
e 15 53
e 15 60
e 15 63
e 15 66
e 15 69
e 15 139
e 16 59
e 16 94
e 16 96
e 16 121
e 16 136
e 16 137
e 17 43
e 17 54
e 17 56
e 17 109
e 17 130
e 18 39
e 18 44
e 18 67
e 18 77
e 18 110
e 18 113
e 19 49
e 19 62
e 19 78
e 20 27
e 20 30
e 20 31
e 20 40
e 20 45
e 20 59
e 20 65
e 20 75
e 20 89
e 20 97
e 20 99
e 20 105
e 20 119
e 20 120
e 21 22
e 21 26
e 21 28
e 21 38
e 21 57
e 22 25
e 22 27
e 22 44
e 22 47
e 22 53
e 22 58
e 22 82
e 22 108
e 22 111
e 22 127
e 23 35
e 23 47
e 23 55
e 23 100
e 23 103
e 23 115
e 23 133
e 23 138
e 24 49
e 24 65
e 24 81
e 25 50
e 25 67
e 25 75
e 25 80
e 25 83
e 25 95
e 25 100
e 25 131
e 25 140
e 26 32
e 26 35
e 26 42
e 26 64
e 26 66
e 26 85
e 26 130
e 27 36
e 27 39
e 27 98
e 28 32
e 28 88
e 28 95
e 28 107
e 28 112
e 28 132
e 28 134
e 28 137
e 29 34
e 29 36
e 29 66
e 29 72
e 29 81
e 29 129
e 30 33
e 30 40
e 30 41
e 30 48
e 30 51
e 30 57
e 30 65
e 30 69
e 30 73
e 30 76
e 30 84
e 30 87
e 30 90
e 30 119
e 30 136
e 30 139
e 32 110
e 33 74
e 33 91
e 34 43
e 34 141
e 35 62
e 35 78
e 35 91
e 35 97
e 36 41
e 36 97
e 37 38
e 37 44
e 37 45
e 37 57
e 37 63
e 37 65
e 37 68
e 37 83
e 37 99
e 37 111
e 37 128
e 38 54
e 38 76
e 38 137
e 39 45
e 39 48
e 39 50
e 39 60
e 39 67
e 39 78
e 39 112
e 39 121
e 39 126
e 40 52
e 40 55
e 40 62
e 42 51
e 42 52
e 42 88
e 42 109
e 42 128
e 44 47
e 44 62
e 44 79
e 44 80
e 44 100
e 44 120
e 45 59
e 45 115
e 46 50
e 46 51
e 46 114
e 46 132
e 47 61
e 47 89
e 47 95
e 48 50
e 48 70
e 48 73
e 48 94
e 49 63
e 49 85
e 49 118
e 49 119
e 50 90
e 51 71
e 51 97
e 52 56
e 52 64
e 52 79
e 52 90
e 52 103
e 52 106
e 52 138
e 52 141
e 53 57
e 53 61
e 53 77
e 54 73
e 54 104
e 54 105
e 54 125
e 56 68
e 57 112
e 58 75
e 58 77
e 58 91
e 58 101
e 60 86
e 60 93
e 60 96
e 60 106
e 60 126
e 60 141
e 61 82
e 62 101
e 62 106
e 62 116
e 62 118
e 62 120
e 63 76
e 63 82
e 63 102
e 65 107
e 65 111
e 65 123
e 65 127
e 65 129
e 66 84
e 66 113
e 66 123
e 66 124
e 67 99
e 67 126
e 68 140
e 70 105
e 70 107
e 70 128
e 72 85
e 72 98
e 75 83
e 75 92
e 75 103
e 76 83
e 76 132
e 77 86
e 77 87
e 77 98
e 77 116
e 79 118
e 79 128
e 79 129
e 80 109
e 80 117
e 80 136
e 84 101
e 84 104
e 85 96
e 85 116
e 85 124
e 86 89
e 87 106
e 89 116
e 89 139
e 91 129
e 91 141
e 93 98
e 93 122
e 93 134
e 95 96
e 96 104
e 96 112
e 96 139
e 99 122
e 100 113
e 102 108
e 102 130
e 103 126
e 103 135
e 104 114
e 104 136
e 107 140
e 108 125
e 108 138
e 112 123
e 113 133
e 115 118
e 116 117
e 120 133
e 122 130
e 125 127
e 128 132
e 128 135
e 132 134
